/* Objective funtion */
Max: 420L1 + 360M1 + 300S1 + 420L2 + 360M2 + 300S2 + 420 L3 + 360M3 + 300S3;

/* Capacity */
L1 + M1+ S1 <= 750;
L2 + M2 + S2 <= 900;
L3 + M3 + S3 <= 450;

20L1 + 15M1 + 12S1 <= 13000;
20L2 + 15M2 + 12S2 <= 12000;
20L3 + 15M3 + 12S3 <= 5000;

/* Sales */
L1 + L2 + L3 <= 900;
M1 + M2 + M3 <= 1200;
S1 + S2 + S3 <= 750;

/* Same % of capacity */
900L1 + 900M1 + 900S1 - 750L2 - 750M2 - 750S2 = 0;
450L1 + 450M1 + 450S1 - 750L3 - 750M3 - 750S3 = 0;